$  # - Wall
$  @ - Target Position
$  $ - Porter
$  & - Crate
$  * - Empty Cell
$
$  ###
$  $&@
$  ### 
$ by Geetha Ramachandran
$ geetha.ramachandran@gmail.com

ESSENCE' 1.0

letting n be 9
letting w be 3
letting noWalls be 6
letting noInvalidMoves be 3
letting noCrates be 1
letting noGoals be 1

letting pInit be 3

letting stps be 2

letting walls be [0,1,2,6,7,8]

letting invalidMoves be [2,0,-2]

letting crates be [4]

letting goals be [5]
